ATOMIC_SPECIES
Mo 95.940 Mo_ONCV_PBE-1.0.upf
S 32.060 S_ONCV_PBE-1.0.upf

LATTICE_CONSTANT
1.8897261254578281

LATTICE_VECTORS
19.452932445 0.0 0.0 
-9.735667572670712 16.8706536698 0.0 
-0.025763634 -0.3608541171 17.6507289801 

ATOMIC_POSITIONS
Cartesian    # Cartesian(Unit is LATTICE_CONSTANT)
Mo
0.0
36
-1.540530000000 2.580510000000 9.052600000000 1 1 1
16.196292445000 5.422260000000 9.108610000000 1 1 1
14.530742445000 8.196130000000 9.182730000000 1 1 1
-6.461232445000 11.014300000000 9.154620000000 1 1 1
-7.983432445000 13.807700000000 9.081310000000 1 1 1
9.726560000000 16.643400000000 9.118810000000 1 1 1
1.677980000000 2.517170000000 9.083450000000 1 1 1
0.111765000000 5.404760000000 9.146840000000 1 1 1
-1.686360000000 8.249130000000 9.169760000000 1 1 1
-3.173440000000 11.086000000000 9.195470000000 1 1 1
-4.729950000000 13.785500000000 9.199920000000 1 1 1
-6.329250000000 16.623200000000 9.163690000000 1 1 1
4.810490000000 2.602660000000 9.203110000000 1 1 1
3.306180000000 5.444790000000 9.138260000000 1 1 1
1.626580000000 8.243060000000 9.080590000000 1 1 1
0.087592700000 11.018900000000 9.154730000000 1 1 1
-1.455630000000 13.889500000000 9.250520000000 1 1 1
6.555160000000 -0.125436000000 9.219250000000 1 1 1
8.057130000000 2.639200000000 9.193540000000 1 1 1
6.526420000000 5.529590000000 9.129000000000 1 1 1
4.882600000000 8.246280000000 9.126470000000 1 1 1
3.335450000000 11.090700000000 9.124160000000 1 1 1
1.773580000000 13.847400000000 9.244420000000 1 1 1
9.791190000000 -0.185738000000 9.243960000000 1 1 1
11.338400000000 2.665450000000 9.175550000000 1 1 1
9.674340000000 5.473350000000 9.158390000000 1 1 1
8.112910000000 8.276950000000 9.176960000000 1 1 1
6.526600000000 11.085300000000 9.163860000000 1 1 1
4.954000000000 13.854100000000 9.143230000000 1 1 1
3.289032427300 16.668471669800 9.212920000000 1 1 1
14.602300000000 2.594670000000 9.188840000000 1 1 1
12.889200000000 5.394690000000 9.198260000000 1 1 1
11.353400000000 8.282020000000 9.190160000000 1 1 1
9.807370000000 11.119600000000 9.104260000000 1 1 1
8.235840000000 13.829300000000 9.119610000000 1 1 1
16.299787572700 -0.177153669800 9.101080000000 1 1 1
S
0.0
72
1.717490000000 0.743789000000 10.717700000000 1 1 1
-0.010404700000 3.512050000000 10.624900000000 1 1 1
-1.570120000000 6.309270000000 10.627900000000 1 1 1
-3.123740000000 9.124580000000 10.723800000000 1 1 1
-4.749440000000 11.957200000000 10.768700000000 1 1 1
-6.362080000000 14.812800000000 10.663500000000 1 1 1
4.946060000000 0.746053000000 10.780900000000 1 1 1
3.151040000000 3.534740000000 10.624900000000 1 1 1
1.657720000000 6.385960000000 10.675900000000 1 1 1
0.115439000000 9.101960000000 10.678300000000 1 1 1
-1.616280000000 11.993500000000 10.731000000000 1 1 1
-3.114020000000 14.845200000000 10.827800000000 1 1 1
8.179930000000 0.743697000000 10.767100000000 1 1 1
6.490350000000 3.609640000000 10.683400000000 1 1 1
4.991160000000 6.422430000000 10.748900000000 1 1 1
3.360880000000 9.180650000000 10.680900000000 1 1 1
1.780880000000 11.854500000000 10.688100000000 1 1 1
0.240237000000 14.672200000000 10.768700000000 1 1 1
11.401900000000 0.769072000000 10.728500000000 1 1 1
9.687720000000 3.589130000000 10.731000000000 1 1 1
8.045850000000 6.420350000000 10.772800000000 1 1 1
6.563910000000 9.151730000000 10.690600000000 1 1 1
4.920920000000 12.008500000000 10.758800000000 1 1 1
3.403470000000 14.792800000000 10.694300000000 1 1 1
14.662300000000 0.794545000000 10.722400000000 1 1 1
12.955800000000 3.522320000000 10.714000000000 1 1 1
11.274200000000 6.382550000000 10.735300000000 1 1 1
9.802190000000 9.170490000000 10.667500000000 1 1 1
8.174210000000 12.091200000000 10.666200000000 1 1 1
6.527600000000 14.924100000000 10.631500000000 1 1 1
17.929200000000 0.728564000000 10.685200000000 1 1 1
16.222300000000 3.566010000000 10.592000000000 1 1 1
14.579000000000 6.317370000000 10.712800000000 1 1 1
13.025300000000 9.125370000000 10.770600000000 1 1 1
11.434100000000 11.972300000000 10.673600000000 1 1 1
9.800160000000 14.771600000000 10.719100000000 1 1 1
1.666890000000 0.714756000000 7.539870000000 1 1 1
-0.045536400000 3.551640000000 7.536380000000 1 1 1
-1.491080000000 6.372910000000 7.663070000000 1 1 1
-3.181170000000 9.113150000000 7.625550000000 1 1 1
-4.750850000000 11.959500000000 7.602610000000 1 1 1
-6.297440000000 14.749300000000 7.653950000000 1 1 1
5.019640000000 0.722062000000 7.563770000000 1 1 1
3.237450000000 3.535090000000 7.567790000000 1 1 1
1.710120000000 6.437890000000 7.582670000000 1 1 1
0.041121100000 9.141370000000 7.565590000000 1 1 1
-1.594580000000 12.143000000000 7.618260000000 1 1 1
-3.069120000000 14.760300000000 7.726450000000 1 1 1
8.169930000000 0.730633000000 7.660330000000 1 1 1
6.494590000000 3.525410000000 7.627970000000 1 1 1
4.963530000000 6.355110000000 7.627470000000 1 1 1
3.386330000000 9.121450000000 7.516770000000 1 1 1
1.794860000000 11.985400000000 7.627170000000 1 1 1
0.189460000000 14.633400000000 7.692380000000 1 1 1
11.385400000000 0.625097000000 7.638270000000 1 1 1
9.597270000000 3.580780000000 7.622910000000 1 1 1
8.057840000000 6.473290000000 7.527950000000 1 1 1
6.588500000000 9.097830000000 7.599250000000 1 1 1
4.919450000000 12.059100000000 7.570360000000 1 1 1
3.331330000000 14.742100000000 7.610890000000 1 1 1
14.505900000000 0.718264000000 7.605960000000 1 1 1
12.889100000000 3.564870000000 7.657320000000 1 1 1
11.289600000000 6.404920000000 7.626460000000 1 1 1
9.755780000000 9.152350000000 7.646630000000 1 1 1
8.151980000000 12.062300000000 7.563890000000 1 1 1
6.552310000000 14.848500000000 7.579190000000 1 1 1
17.927800000000 0.710317000000 7.517700000000 1 1 1
16.065100000000 3.524250000000 7.569480000000 1 1 1
14.561200000000 6.324210000000 7.671280000000 1 1 1
13.028000000000 9.082960000000 7.585720000000 1 1 1
11.476900000000 11.993700000000 7.455820000000 1 1 1
9.764300000000 14.776700000000 7.580710000000 1 1 1

NUMERICAL_ORBITAL
Mo_gga_7au_100Ry_4s2p2d1f.orb
S_gga_7au_100Ry_2s2p1d.orb
